Traveling Salesman Problem/TSP_generados/Aleatorio1621103384_13.tsp
NAME: Aleatorio1621103384_13.tsp
COMMENT: Randomly generated scenario
TYPE: TSP
DIMENSION: 13
EDGE_WEIGHT_TYPE: ATT
NODE_COORD_SECTION
1 32.99 7.58
2 32.32 16.45
3 19.78 12.2
4 21.19 7.45
5 27.84 38.38
6 22.98 0.22
7 33.54 42.26
8 46.35 21.46
9 40.37 30.69
10 38.95 46.49
11 31.46 10.14
12 6.8 8.52
13 18.92 37.81
