Traveling Salesman Problem/TSP_generados/Aleatorio1621103384_13.opt.tour
NAME: Aleatorio1621103384_13.opt.tour
COMMENT: Optimal solution for Aleatorio1621103384_13 (143.82861283383448)
TYPE: TOUR
DIMENSION: 13
TOUR_SECTION
1 11 2 8 9 10 7 5 13 12 3 4 6
-1
EOF
